words_hard_train/6587.qaiger
aag 31 16 0 1 15
2
4
8
12
16
18
22
26
28
32
40
42
46
48
54
56
63
6 3 4
10 6 9
14 10 13
20 16 18
24 20 23
30 27 28
34 30 32
36 24 34
38 14 36
44 41 42
50 47 48
52 45 50
58 55 56
60 52 58
62 38 60
i0 1 x1[2]
i1 2 y2[1]
i2 1 x1[5]
i3 1 x1[3]
i4 2 y2[2]
i5 2 y2[3]
i6 1 x1[0]
i7 1 x1[6]
i8 2 y2[6]
i9 2 y2[5]
i10 1 x1[7]
i11 2 y2[7]
i12 1 x1[4]
i13 2 y2[0]
i14 1 x1[1]
i15 2 y2[4]
o0 bv[0]
c
simplified
  <
    128
    or
      add
        2 y2
        abs
          1
      1 x1
