words_hard_train/6587.qaiger.qdimacs
p cnf 31 46
a 1 4 6 11 13 20 23 27 0
e 2 3 5 7 8 9 10 12 14 15 16 17 18 19 21 22 24 25 26 28 29 30 31 0
1 -2 3 0
-1 -3 0
2 -3 0
-3 4 5 0
3 -5 0
-4 -5 0
-5 6 7 0
5 -7 0
-6 -7 0
-8 -9 10 0
8 -10 0
9 -10 0
-10 11 12 0
10 -12 0
-11 -12 0
13 -14 15 0
-13 -15 0
14 -15 0
-15 -16 17 0
15 -17 0
16 -17 0
-12 -17 18 0
12 -18 0
17 -18 0
-7 -18 19 0
7 -19 0
18 -19 0
20 -21 22 0
-20 -22 0
21 -22 0
23 -24 25 0
-23 -25 0
24 -25 0
22 -25 26 0
-22 -26 0
25 -26 0
27 -28 29 0
-27 -29 0
28 -29 0
-26 -29 30 0
26 -30 0
29 -30 0
-19 -30 31 0
19 -31 0
30 -31 0
-31 0
